3 
4 
5  10 25 40 55 
6  10 22 29 37 44 50 58 
7  05 13 20 28 35 43 50 58 
8  05 13 20 28 35 43 50 58 
9  05 13 20 28 35 43 50 58 
10  05 13 20 28 35 43 50 58 
11  05 13 20 28 35 43 50 58 
12  05 13 20 28 35 43 50 58 
13  05 12 19 27 34 42 49 57 
14  04 12 19 27 34 42 49 57 
15  04 11 19 26 34 41 49 56 
16  04 11 19 26 34 41 49 56 
17  04 11 19 26 34 41 49 56 
18  04 11 19 26 34 41 49 56 
19  04 11 20 28 36 43 51 59 
20  06 13 21 28 41 56 
21  11 26 41 56 
22  11 24 39 52 
23 
